c description: Random 3-CNF over 20 variables and 85 clauses
c generator: CNFgen (0.9.2)
c copyright: (C) 2012-2022 Massimo Lauria <massimo.lauria@uniroma1.it>
c url: https://massimolauria.net/cnfgen
c command line: cnfgen --output CNF_4.28/20_bit_85_522.cnf randkcnf 3 20 85
c
p cnf 20 85
-4 5 15 0
-9 -14 -19 0
-3 12 19 0
-3 7 -17 0
4 5 -19 0
-1 -18 20 0
-5 -15 18 0
-6 -10 16 0
7 16 18 0
2 4 -20 0
-2 -16 18 0
-1 3 6 0
2 -17 20 0
4 -9 -16 0
-2 15 19 0
-8 -16 -18 0
3 17 -18 0
-5 11 -18 0
-4 -6 -11 0
4 -19 20 0
-6 7 12 0
-3 4 6 0
14 16 20 0
-2 8 18 0
-1 -9 -16 0
4 -8 13 0
5 -6 -20 0
2 -12 -15 0
3 6 7 0
-7 -12 20 0
-14 17 -19 0
3 -9 -11 0
12 14 -16 0
-14 16 -17 0
-11 -18 -19 0
-6 10 20 0
16 19 -20 0
-7 -13 -19 0
-9 16 20 0
-2 -7 11 0
-8 11 18 0
15 16 20 0
-9 12 -19 0
4 6 16 0
3 4 6 0
2 12 -18 0
1 7 13 0
4 -5 19 0
-2 4 18 0
8 -14 15 0
2 4 -5 0
3 11 -18 0
15 -16 19 0
9 -11 -14 0
-6 -15 18 0
-7 -13 15 0
-8 -13 19 0
7 -12 -16 0
8 -12 -18 0
-2 -5 -20 0
3 8 16 0
4 -9 -17 0
-11 -12 15 0
-4 -9 14 0
-6 -17 19 0
-2 3 10 0
-4 12 -15 0
-1 -6 7 0
-1 -9 12 0
12 -16 17 0
-6 -7 9 0
5 6 13 0
15 -17 18 0
-3 7 -16 0
4 6 -12 0
-8 9 -17 0
7 -15 17 0
-7 8 16 0
-8 10 14 0
5 -9 -18 0
12 13 -14 0
-2 -5 12 0
-16 17 20 0
5 -11 -18 0
-4 15 20 0
